50 1225
1 2 56
1 3 4
1 4 48
1 5 112
1 6 120
1 7 98
1 8 72
1 9 110
1 10 61
1 11 122
1 12 48
1 13 100
1 14 84
1 15 59
1 16 148
1 17 119
1 18 133
1 19 18
1 20 50
1 21 48
1 22 53
1 23 5
1 24 80
1 25 35
1 26 112
1 27 12
1 28 82
1 29 15
1 30 134
1 31 90
1 32 28
1 33 137
1 34 109
1 35 128
1 36 133
1 37 69
1 38 118
1 39 132
1 40 76
1 41 30
1 42 30
1 43 122
1 44 112
1 45 63
1 46 66
1 47 121
1 48 71
1 49 33
1 50 8
2 3 58
2 4 103
2 5 24
2 6 25
2 7 126
2 8 107
2 9 64
2 10 47
2 11 5
2 12 18
2 13 39
2 14 96
2 15 132
2 16 50
2 17 96
2 18 57
2 19 113
2 20 144
2 21 1
2 22 51
2 23 1
2 24 27
2 25 32
2 26 31
2 27 86
2 28 74
2 29 89
2 30 81
2 31 67
2 32 1
2 33 65
2 34 49
2 35 33
2 36 11
2 37 11
2 38 125
2 39 81
2 40 29
2 41 107
2 42 124
2 43 3
2 44 94
2 45 38
2 46 92
2 47 41
2 48 1
2 49 80
2 50 25
3 4 120
3 5 10
3 6 73
3 7 68
3 8 28
3 9 144
3 10 34
3 11 41
3 12 0
3 13 1
3 14 78
3 15 36
3 16 118
3 17 120
3 18 128
3 19 3
3 20 7
3 21 88
3 22 99
3 23 94
3 24 108
3 25 10
3 26 43
3 27 94
3 28 101
3 29 140
3 30 35
3 31 90
3 32 31
3 33 48
3 34 146
3 35 114
3 36 14
3 37 118
3 38 131
3 39 101
3 40 12
3 41 65
3 42 69
3 43 54
3 44 49
3 45 100
3 46 3
3 47 22
3 48 133
3 49 139
3 50 147
4 5 98
4 6 139
4 7 0
4 8 100
4 9 43
4 10 85
4 11 13
4 12 79
4 13 42
4 14 2
4 15 120
4 16 75
4 17 28
4 18 83
4 19 109
4 20 87
4 21 114
4 22 80
4 23 123
4 24 78
4 25 7
4 26 111
4 27 138
4 28 103
4 29 31
4 30 116
4 31 17
4 32 1
4 33 54
4 34 21
4 35 74
4 36 105
4 37 139
4 38 15
4 39 117
4 40 39
4 41 73
4 42 121
4 43 32
4 44 146
4 45 62
4 46 25
4 47 54
4 48 56
4 49 101
4 50 129
5 6 88
5 7 85
5 8 75
5 9 54
5 10 111
5 11 118
5 12 33
5 13 75
5 14 133
5 15 129
5 16 109
5 17 71
5 18 148
5 19 3
5 20 124
5 21 124
5 22 54
5 23 60
5 24 131
5 25 121
5 26 73
5 27 145
5 28 1
5 29 49
5 30 30
5 31 38
5 32 83
5 33 46
5 34 86
5 35 97
5 36 49
5 37 76
5 38 102
5 39 53
5 40 44
5 41 18
5 42 60
5 43 29
5 44 95
5 45 21
5 46 58
5 47 53
5 48 34
5 49 19
5 50 76
6 7 87
6 8 133
6 9 32
6 10 118
6 11 143
6 12 49
6 13 98
6 14 108
6 15 115
6 16 122
6 17 93
6 18 132
6 19 138
6 20 24
6 21 63
6 22 56
6 23 77
6 24 130
6 25 6
6 26 121
6 27 105
6 28 88
6 29 63
6 30 81
6 31 92
6 32 44
6 33 68
6 34 114
6 35 135
6 36 42
6 37 31
6 38 94
6 39 115
6 40 14
6 41 111
6 42 135
6 43 94
6 44 80
6 45 146
6 46 140
6 47 24
6 48 26
6 49 103
6 50 48
7 8 138
7 9 1
7 10 145
7 11 92
7 12 38
7 13 106
7 14 32
7 15 122
7 16 135
7 17 128
7 18 89
7 19 86
7 20 72
7 21 36
7 22 74
7 23 76
7 24 31
7 25 26
7 26 11
7 27 110
7 28 123
7 29 69
7 30 59
7 31 6
7 32 99
7 33 103
7 34 47
7 35 50
7 36 143
7 37 138
7 38 84
7 39 146
7 40 5
7 41 136
7 42 78
7 43 83
7 44 128
7 45 117
7 46 7
7 47 122
7 48 44
7 49 80
7 50 32
8 9 33
8 10 111
8 11 2
8 12 107
8 13 131
8 14 47
8 15 0
8 16 87
8 17 24
8 18 68
8 19 107
8 20 85
8 21 69
8 22 64
8 23 134
8 24 141
8 25 122
8 26 101
8 27 9
8 28 84
8 29 47
8 30 2
8 31 15
8 32 51
8 33 81
8 34 105
8 35 41
8 36 45
8 37 74
8 38 15
8 39 127
8 40 2
8 41 115
8 42 40
8 43 3
8 44 143
8 45 24
8 46 48
8 47 21
8 48 108
8 49 58
8 50 50
9 10 137
9 11 5
9 12 22
9 13 29
9 14 10
9 15 66
9 16 132
9 17 98
9 18 25
9 19 6
9 20 60
9 21 99
9 22 141
9 23 48
9 24 75
9 25 47
9 26 107
9 27 46
9 28 114
9 29 59
9 30 70
9 31 25
9 32 88
9 33 82
9 34 135
9 35 31
9 36 29
9 37 69
9 38 46
9 39 5
9 40 98
9 41 127
9 42 34
9 43 8
9 44 100
9 45 117
9 46 105
9 47 53
9 48 116
9 49 91
9 50 8
10 11 52
10 12 9
10 13 31
10 14 133
10 15 20
10 16 56
10 17 94
10 18 102
10 19 97
10 20 137
10 21 118
10 22 60
10 23 105
10 24 10
10 25 24
10 26 127
10 27 85
10 28 43
10 29 37
10 30 117
10 31 86
10 32 33
10 33 40
10 34 85
10 35 17
10 36 124
10 37 86
10 38 14
10 39 100
10 40 59
10 41 76
10 42 74
10 43 23
10 44 108
10 45 41
10 46 133
10 47 35
10 48 28
10 49 75
10 50 32
11 12 58
11 13 33
11 14 27
11 15 121
11 16 67
11 17 109
11 18 57
11 19 113
11 20 92
11 21 137
11 22 106
11 23 79
11 24 106
11 25 116
11 26 113
11 27 40
11 28 7
11 29 96
11 30 66
11 31 139
11 32 6
11 33 82
11 34 25
11 35 139
11 36 89
11 37 50
11 38 50
11 39 108
11 40 13
11 41 63
11 42 133
11 43 43
11 44 55
11 45 129
11 46 85
11 47 146
11 48 80
11 49 55
11 50 132
12 13 83
12 14 20
12 15 55
12 16 102
12 17 39
12 18 13
12 19 18
12 20 37
12 21 6
12 22 2
12 23 115
12 24 83
12 25 31
12 26 46
12 27 118
12 28 140
12 29 141
12 30 99
12 31 143
12 32 15
12 33 144
12 34 91
12 35 12
12 36 125
12 37 61
12 38 134
12 39 13
12 40 2
12 41 8
12 42 83
12 43 96
12 44 118
12 45 128
12 46 68
12 47 12
12 48 142
12 49 105
12 50 112
13 14 109
13 15 84
13 16 83
13 17 52
13 18 20
13 19 82
13 20 148
13 21 127
13 22 38
13 23 86
13 24 32
13 25 10
13 26 130
13 27 88
13 28 59
13 29 33
13 30 89
13 31 83
13 32 57
13 33 101
13 34 100
13 35 138
13 36 60
13 37 8
13 38 28
13 39 116
13 40 69
13 41 140
13 42 136
13 43 109
13 44 11
13 45 135
13 46 2
13 47 2
13 48 63
13 49 84
13 50 24
14 15 100
14 16 138
14 17 144
14 18 137
14 19 74
14 20 73
14 21 9
14 22 97
14 23 23
14 24 101
14 25 33
14 26 129
14 27 123
14 28 61
14 29 4
14 30 113
14 31 83
14 32 4
14 33 138
14 34 120
14 35 107
14 36 33
14 37 14
14 38 92
14 39 18
14 40 3
14 41 143
14 42 32
14 43 78
14 44 127
14 45 59
14 46 25
14 47 104
14 48 141
14 49 19
14 50 88
15 16 70
15 17 91
15 18 17
15 19 50
15 20 115
15 21 2
15 22 105
15 23 28
15 24 107
15 25 115
15 26 96
15 27 118
15 28 91
15 29 91
15 30 55
15 31 120
15 32 76
15 33 62
15 34 87
15 35 70
15 36 141
15 37 57
15 38 41
15 39 42
15 40 13
15 41 134
15 42 108
15 43 45
15 44 73
15 45 7
15 46 72
15 47 76
15 48 60
15 49 114
15 50 127
16 17 20
16 18 4
16 19 127
16 20 59
16 21 52
16 22 135
16 23 19
16 24 9
16 25 60
16 26 138
16 27 22
16 28 97
16 29 49
16 30 52
16 31 108
16 32 83
16 33 149
16 34 80
16 35 77
16 36 6
16 37 30
16 38 59
16 39 139
16 40 116
16 41 14
16 42 29
16 43 116
16 44 148
16 45 51
16 46 121
16 47 86
16 48 83
16 49 143
16 50 135
17 18 40
17 19 40
17 20 82
17 21 5
17 22 31
17 23 48
17 24 5
17 25 134
17 26 94
17 27 26
17 28 8
17 29 47
17 30 61
17 31 103
17 32 121
17 33 52
17 34 32
17 35 91
17 36 51
17 37 83
17 38 63
17 39 102
17 40 135
17 41 93
17 42 73
17 43 1
17 44 51
17 45 47
17 46 140
17 47 79
17 48 114
17 49 55
17 50 91
18 19 11
18 20 100
18 21 138
18 22 131
18 23 56
18 24 12
18 25 52
18 26 12
18 27 136
18 28 114
18 29 66
18 30 84
18 31 97
18 32 78
18 33 23
18 34 127
18 35 52
18 36 83
18 37 139
18 38 54
18 39 24
18 40 102
18 41 10
18 42 104
18 43 49
18 44 51
18 45 39
18 46 79
18 47 110
18 48 124
18 49 64
18 50 7
19 20 140
19 21 17
19 22 93
19 23 84
19 24 7
19 25 117
19 26 49
19 27 121
19 28 32
19 29 66
19 30 22
19 31 82
19 32 8
19 33 122
19 34 43
19 35 37
19 36 55
19 37 122
19 38 135
19 39 142
19 40 61
19 41 77
19 42 141
19 43 108
19 44 144
19 45 77
19 46 119
19 47 30
19 48 11
19 49 42
19 50 114
20 21 145
20 22 70
20 23 86
20 24 113
20 25 141
20 26 128
20 27 128
20 28 78
20 29 102
20 30 86
20 31 7
20 32 73
20 33 68
20 34 90
20 35 116
20 36 82
20 37 125
20 38 40
20 39 113
20 40 138
20 41 148
20 42 147
20 43 15
20 44 1
20 45 87
20 46 61
20 47 149
20 48 37
20 49 100
20 50 39
21 22 63
21 23 41
21 24 123
21 25 66
21 26 97
21 27 24
21 28 78
21 29 28
21 30 68
21 31 45
21 32 106
21 33 34
21 34 133
21 35 55
21 36 13
21 37 57
21 38 110
21 39 113
21 40 83
21 41 77
21 42 72
21 43 109
21 44 13
21 45 7
21 46 38
21 47 17
21 48 104
21 49 110
21 50 106
22 23 60
22 24 74
22 25 66
22 26 69
22 27 67
22 28 8
22 29 131
22 30 88
22 31 106
22 32 54
22 33 4
22 34 66
22 35 63
22 36 75
22 37 19
22 38 11
22 39 101
22 40 22
22 41 102
22 42 35
22 43 121
22 44 74
22 45 101
22 46 85
22 47 14
22 48 145
22 49 45
22 50 1
23 24 12
23 25 117
23 26 17
23 27 5
23 28 146
23 29 109
23 30 71
23 31 144
23 32 97
23 33 14
23 34 129
23 35 115
23 36 120
23 37 126
23 38 2
23 39 105
23 40 31
23 41 68
23 42 20
23 43 80
23 44 57
23 45 144
23 46 96
23 47 123
23 48 90
23 49 50
23 50 126
24 25 50
24 26 14
24 27 74
24 28 89
24 29 25
24 30 17
24 31 148
24 32 3
24 33 111
24 34 78
24 35 84
24 36 92
24 37 63
24 38 14
24 39 142
24 40 30
24 41 58
24 42 47
24 43 121
24 44 85
24 45 87
24 46 138
24 47 7
24 48 14
24 49 65
24 50 33
25 26 117
25 27 77
25 28 60
25 29 6
25 30 76
25 31 96
25 32 55
25 33 97
25 34 51
25 35 70
25 36 91
25 37 10
25 38 57
25 39 121
25 40 9
25 41 142
25 42 128
25 43 121
25 44 31
25 45 120
25 46 56
25 47 122
25 48 3
25 49 79
25 50 0
26 27 16
26 28 98
26 29 7
26 30 138
26 31 7
26 32 139
26 33 42
26 34 7
26 35 3
26 36 42
26 37 3
26 38 5
26 39 134
26 40 108
26 41 100
26 42 133
26 43 84
26 44 90
26 45 143
26 46 121
26 47 105
26 48 139
26 49 107
26 50 54
27 28 81
27 29 119
27 30 92
27 31 18
27 32 75
27 33 73
27 34 1
27 35 82
27 36 32
27 37 20
27 38 50
27 39 46
27 40 108
27 41 119
27 42 82
27 43 120
27 44 56
27 45 75
27 46 55
27 47 52
27 48 36
27 49 52
27 50 132
28 29 26
28 30 6
28 31 126
28 32 148
28 33 8
28 34 86
28 35 56
28 36 114
28 37 14
28 38 73
28 39 69
28 40 105
28 41 16
28 42 149
28 43 102
28 44 96
28 45 120
28 46 77
28 47 149
28 48 61
28 49 44
28 50 97
29 30 77
29 31 7
29 32 85
29 33 121
29 34 122
29 35 101
29 36 130
29 37 148
29 38 105
29 39 55
29 40 72
29 41 25
29 42 31
29 43 12
29 44 112
29 45 149
29 46 128
29 47 101
29 48 4
29 49 91
29 50 124
30 31 70
30 32 144
30 33 10
30 34 92
30 35 109
30 36 79
30 37 27
30 38 20
30 39 113
30 40 42
30 41 71
30 42 5
30 43 27
30 44 82
30 45 34
30 46 141
30 47 89
30 48 28
30 49 70
30 50 39
31 32 62
31 33 65
31 34 30
31 35 137
31 36 130
31 37 126
31 38 112
31 39 31
31 40 8
31 41 7
31 42 87
31 43 13
31 44 116
31 45 103
31 46 38
31 47 15
31 48 147
31 49 135
31 50 83
32 33 149
32 34 117
32 35 44
32 36 149
32 37 54
32 38 135
32 39 95
32 40 6
32 41 18
32 42 144
32 43 27
32 44 95
32 45 115
32 46 130
32 47 135
32 48 21
32 49 105
32 50 95
33 34 47
33 35 95
33 36 64
33 37 140
33 38 68
33 39 145
33 40 107
33 41 90
33 42 117
33 43 27
33 44 132
33 45 91
33 46 129
33 47 144
33 48 5
33 49 148
33 50 0
34 35 99
34 36 84
34 37 27
34 38 73
34 39 3
34 40 45
34 41 82
34 42 58
34 43 100
34 44 70
34 45 22
34 46 141
34 47 90
34 48 98
34 49 52
34 50 2
35 36 87
35 37 136
35 38 98
35 39 114
35 40 75
35 41 72
35 42 5
35 43 100
35 44 26
35 45 63
35 46 74
35 47 64
35 48 64
35 49 54
35 50 78
36 37 143
36 38 18
36 39 54
36 40 59
36 41 145
36 42 141
36 43 135
36 44 17
36 45 134
36 46 98
36 47 90
36 48 57
36 49 134
36 50 66
37 38 96
37 39 61
37 40 21
37 41 56
37 42 40
37 43 149
37 44 23
37 45 64
37 46 43
37 47 33
37 48 118
37 49 137
37 50 113
38 39 142
38 40 149
38 41 99
38 42 52
38 43 81
38 44 130
38 45 17
38 46 55
38 47 79
38 48 12
38 49 4
38 50 48
39 40 60
39 41 119
39 42 109
39 43 21
39 44 50
39 45 133
39 46 99
39 47 37
39 48 40
39 49 37
39 50 11
40 41 78
40 42 108
40 43 14
40 44 101
40 45 80
40 46 131
40 47 8
40 48 42
40 49 7
40 50 118
41 42 11
41 43 42
41 44 117
41 45 18
41 46 96
41 47 127
41 48 8
41 49 16
41 50 110
42 43 65
42 44 76
42 45 14
42 46 91
42 47 55
42 48 133
42 49 62
42 50 106
43 44 43
43 45 69
43 46 143
43 47 92
43 48 98
43 49 89
43 50 108
44 45 0
44 46 19
44 47 113
44 48 108
44 49 147
44 50 40
45 46 18
45 47 102
45 48 132
45 49 21
45 50 37
46 47 121
46 48 93
46 49 123
46 50 67
47 48 20
47 49 119
47 50 11
48 49 87
48 50 87
49 50 134
